# Problem from Gecode/examples/minesweeper.cc  problem 3

param r := 8;
param c := 8;
param game: 1 2 3 4 5 6 7 8 :=
    1  2 . . . 3 . 1 . 
    2  . 5 . 4 . . . 1 
    3  . . 5 . . 4 . . 
    4  2 . . . 4 . 5 . 
    5  . 2 . 4 . . . 2 
    6  . . 5 . . 4 . . 
    7  2 . . . 5 . 4 . 
    8  . 3 . 3 . . . 2 
;

